benchmarks_CP/INST_49x49/50/inst49x49_50_98.dzn
S=7;
start=[|
-1,	-1,	-1,	12,	-1,	-1,	-1,	-1,	-1,	-1,	45,	-1,	-1,	-1,	-1,	34,	8,	-1,	-1,	17,	-1,	-1,	4,	27,	-1,	44,	6,	48,	-1,	2,	-1,	5,	-1,	22,	38,	-1,	18,	10,	20,	30,	-1,	7,	-1,	40,	28,	26,	-1,	23,	-1|
17,	-1,	-1,	15,	-1,	-1,	-1,	-1,	29,	-1,	-1,	41,	-1,	-1,	-1,	9,	48,	-1,	12,	43,	20,	-1,	-1,	-1,	-1,	-1,	-1,	-1,	46,	21,	36,	28,	-1,	-1,	-1,	1,	22,	-1,	35,	11,	14,	42,	31,	-1,	8,	27,	-1,	7,	10|
2,	-1,	37,	38,	-1,	-1,	44,	-1,	8,	-1,	-1,	-1,	-1,	11,	28,	4,	-1,	1,	-1,	-1,	45,	26,	-1,	35,	41,	25,	-1,	20,	-1,	42,	-1,	14,	43,	24,	-1,	-1,	-1,	16,	27,	-1,	17,	-1,	49,	-1,	-1,	-1,	-1,	-1,	-1|
-1,	-1,	39,	-1,	3,	-1,	14,	16,	-1,	-1,	34,	-1,	-1,	-1,	42,	-1,	10,	29,	-1,	-1,	26,	8,	-1,	28,	49,	18,	2,	-1,	47,	48,	-1,	19,	40,	27,	25,	23,	44,	36,	-1,	4,	32,	-1,	33,	38,	9,	43,	17,	-1,	-1|
-1,	25,	27,	-1,	21,	-1,	33,	13,	-1,	4,	-1,	-1,	14,	2,	-1,	-1,	-1,	44,	47,	-1,	-1,	45,	36,	-1,	-1,	-1,	-1,	34,	1,	-1,	6,	41,	31,	-1,	12,	46,	38,	-1,	-1,	37,	43,	26,	-1,	-1,	-1,	-1,	-1,	20,	24|
-1,	-1,	28,	-1,	9,	-1,	-1,	44,	-1,	-1,	-1,	17,	30,	33,	-1,	36,	-1,	-1,	2,	-1,	27,	-1,	23,	-1,	3,	-1,	-1,	-1,	-1,	-1,	10,	16,	15,	-1,	-1,	-1,	29,	13,	21,	-1,	-1,	-1,	-1,	-1,	-1,	-1,	48,	-1,	32|
-1,	-1,	-1,	-1,	43,	35,	22,	26,	18,	48,	27,	28,	19,	-1,	-1,	-1,	-1,	-1,	-1,	-1,	-1,	-1,	38,	-1,	39,	-1,	-1,	11,	-1,	-1,	32,	30,	-1,	-1,	17,	-1,	-1,	45,	-1,	9,	33,	-1,	-1,	16,	-1,	-1,	42,	14,	-1|
-1,	35,	-1,	11,	-1,	46,	-1,	-1,	19,	5,	26,	-1,	-1,	17,	29,	-1,	37,	25,	16,	42,	-1,	23,	32,	14,	44,	-1,	31,	1,	-1,	22,	18,	13,	-1,	-1,	10,	-1,	-1,	30,	-1,	-1,	41,	4,	28,	-1,	27,	-1,	34,	-1,	-1|
-1,	23,	42,	-1,	-1,	-1,	-1,	12,	-1,	18,	-1,	-1,	9,	-1,	5,	11,	-1,	-1,	-1,	-1,	43,	-1,	-1,	4,	-1,	-1,	38,	36,	24,	30,	15,	-1,	47,	2,	-1,	-1,	-1,	-1,	-1,	-1,	-1,	16,	35,	44,	45,	-1,	-1,	41,	29|
-1,	-1,	-1,	-1,	16,	-1,	-1,	-1,	37,	29,	33,	38,	-1,	-1,	-1,	23,	-1,	30,	41,	28,	-1,	-1,	5,	-1,	40,	47,	11,	27,	-1,	6,	-1,	-1,	-1,	42,	-1,	45,	-1,	25,	-1,	-1,	-1,	17,	-1,	32,	49,	-1,	-1,	-1,	13|
43,	37,	-1,	5,	-1,	-1,	-1,	-1,	-1,	-1,	36,	-1,	20,	-1,	-1,	40,	-1,	-1,	-1,	-1,	-1,	-1,	-1,	18,	15,	39,	-1,	-1,	41,	-1,	-1,	-1,	-1,	-1,	33,	-1,	21,	1,	-1,	-1,	47,	24,	42,	3,	-1,	2,	-1,	-1,	17|
19,	-1,	30,	-1,	48,	-1,	-1,	47,	34,	46,	32,	24,	-1,	10,	38,	26,	-1,	-1,	-1,	4,	36,	9,	3,	7,	17,	-1,	16,	41,	12,	-1,	35,	-1,	49,	-1,	-1,	28,	-1,	15,	44,	29,	42,	-1,	-1,	21,	-1,	-1,	33,	11,	37|
-1,	36,	4,	-1,	25,	21,	45,	-1,	-1,	-1,	-1,	13,	-1,	-1,	17,	-1,	-1,	-1,	27,	33,	-1,	-1,	42,	-1,	43,	34,	-1,	-1,	-1,	-1,	-1,	38,	-1,	28,	-1,	35,	5,	22,	37,	-1,	-1,	20,	-1,	-1,	6,	30,	-1,	16,	-1|
-1,	29,	34,	-1,	-1,	41,	15,	6,	-1,	-1,	42,	2,	-1,	-1,	-1,	13,	32,	-1,	19,	-1,	44,	-1,	45,	-1,	30,	-1,	-1,	21,	-1,	37,	-1,	25,	39,	-1,	7,	-1,	-1,	-1,	-1,	48,	18,	-1,	23,	4,	36,	12,	-1,	-1,	5|
15,	-1,	-1,	-1,	37,	14,	-1,	32,	-1,	34,	-1,	-1,	7,	-1,	12,	21,	-1,	36,	9,	30,	-1,	-1,	33,	11,	-1,	-1,	44,	-1,	-1,	-1,	-1,	-1,	24,	38,	4,	48,	-1,	17,	18,	16,	-1,	-1,	-1,	-1,	31,	-1,	27,	-1,	-1|
20,	-1,	-1,	30,	36,	47,	13,	-1,	35,	-1,	-1,	15,	-1,	38,	-1,	16,	-1,	17,	-1,	-1,	37,	27,	-1,	39,	12,	-1,	43,	31,	-1,	-1,	29,	33,	18,	5,	34,	-1,	10,	-1,	40,	-1,	-1,	-1,	-1,	11,	-1,	-1,	-1,	-1,	23|
16,	8,	17,	33,	29,	-1,	-1,	-1,	-1,	-1,	21,	42,	41,	26,	20,	14,	-1,	-1,	-1,	18,	2,	47,	34,	-1,	-1,	24,	25,	19,	-1,	40,	-1,	43,	6,	23,	46,	-1,	-1,	32,	3,	-1,	4,	9,	-1,	-1,	-1,	38,	-1,	39,	22|
35,	43,	9,	10,	44,	-1,	48,	-1,	-1,	14,	30,	45,	-1,	49,	27,	29,	15,	22,	40,	-1,	-1,	32,	46,	3,	-1,	-1,	-1,	-1,	21,	-1,	13,	42,	19,	11,	28,	33,	12,	-1,	-1,	-1,	38,	-1,	-1,	34,	-1,	-1,	18,	-1,	16|
-1,	40,	-1,	-1,	19,	-1,	-1,	-1,	39,	-1,	-1,	37,	47,	-1,	23,	38,	-1,	34,	-1,	-1,	-1,	30,	8,	-1,	-1,	9,	20,	49,	10,	36,	31,	-1,	14,	7,	-1,	-1,	41,	27,	-1,	13,	22,	15,	43,	17,	26,	-1,	-1,	-1,	44|
-1,	27,	31,	18,	38,	-1,	-1,	29,	12,	13,	44,	9,	-1,	1,	-1,	39,	24,	-1,	-1,	45,	28,	16,	-1,	-1,	23,	-1,	35,	-1,	37,	26,	22,	-1,	-1,	47,	20,	42,	11,	-1,	-1,	8,	-1,	-1,	-1,	33,	15,	3,	19,	-1,	-1|
34,	-1,	-1,	-1,	23,	-1,	-1,	17,	-1,	11,	2,	46,	3,	40,	31,	19,	35,	41,	-1,	26,	33,	-1,	13,	38,	22,	-1,	4,	37,	30,	49,	-1,	12,	-1,	9,	27,	29,	-1,	43,	47,	6,	20,	28,	8,	-1,	48,	21,	10,	36,	-1|
26,	16,	20,	23,	-1,	3,	-1,	-1,	47,	41,	13,	-1,	37,	15,	-1,	-1,	22,	9,	31,	-1,	17,	-1,	-1,	19,	48,	29,	12,	-1,	28,	24,	42,	-1,	1,	-1,	-1,	18,	32,	11,	-1,	-1,	-1,	27,	-1,	39,	-1,	44,	-1,	45,	-1|
-1,	12,	19,	-1,	8,	42,	25,	-1,	36,	10,	-1,	-1,	-1,	-1,	45,	-1,	-1,	-1,	20,	27,	-1,	11,	26,	2,	38,	31,	-1,	-1,	-1,	-1,	-1,	18,	5,	35,	-1,	-1,	-1,	40,	-1,	-1,	-1,	39,	37,	30,	4,	-1,	7,	-1,	-1|
-1,	-1,	32,	-1,	-1,	-1,	30,	-1,	43,	20,	-1,	-1,	-1,	29,	4,	-1,	-1,	-1,	26,	-1,	19,	34,	-1,	-1,	-1,	-1,	-1,	-1,	-1,	45,	9,	8,	-1,	-1,	-1,	-1,	42,	-1,	10,	-1,	-1,	46,	-1,	28,	24,	-1,	-1,	-1,	-1|
46,	6,	35,	-1,	5,	48,	-1,	-1,	1,	-1,	-1,	12,	-1,	-1,	-1,	32,	-1,	14,	-1,	-1,	-1,	-1,	49,	25,	18,	27,	30,	15,	34,	-1,	-1,	37,	-1,	40,	39,	-1,	-1,	38,	33,	-1,	-1,	-1,	9,	-1,	-1,	11,	-1,	-1,	-1|
-1,	28,	15,	-1,	-1,	45,	39,	31,	-1,	-1,	18,	-1,	-1,	25,	35,	-1,	-1,	-1,	38,	-1,	40,	14,	17,	-1,	4,	-1,	-1,	10,	-1,	19,	-1,	48,	12,	-1,	-1,	-1,	9,	-1,	-1,	-1,	21,	-1,	-1,	20,	-1,	-1,	43,	42,	-1|
-1,	-1,	-1,	-1,	-1,	-1,	47,	-1,	27,	-1,	-1,	8,	11,	-1,	44,	30,	-1,	28,	-1,	-1,	5,	-1,	43,	-1,	33,	32,	39,	42,	16,	20,	-1,	15,	-1,	14,	-1,	-1,	-1,	35,	-1,	22,	-1,	-1,	-1,	-1,	10,	40,	36,	29,	-1|
22,	10,	-1,	-1,	-1,	27,	-1,	-1,	-1,	45,	-1,	-1,	-1,	24,	18,	-1,	-1,	15,	-1,	13,	48,	-1,	40,	-1,	28,	-1,	-1,	-1,	17,	25,	-1,	11,	-1,	-1,	-1,	-1,	4,	-1,	-1,	36,	-1,	-1,	-1,	26,	19,	-1,	-1,	-1,	-1|
44,	-1,	-1,	-1,	-1,	36,	-1,	14,	38,	-1,	-1,	-1,	-1,	-1,	-1,	-1,	43,	45,	6,	2,	-1,	12,	31,	40,	32,	33,	-1,	-1,	25,	-1,	-1,	4,	-1,	19,	-1,	-1,	27,	-1,	17,	-1,	37,	18,	29,	-1,	42,	-1,	39,	13,	-1|
-1,	-1,	48,	-1,	-1,	16,	29,	-1,	33,	12,	47,	-1,	-1,	-1,	-1,	31,	20,	38,	34,	-1,	-1,	-1,	-1,	10,	-1,	-1,	36,	35,	-1,	-1,	49,	-1,	-1,	-1,	-1,	9,	-1,	-1,	-1,	26,	28,	-1,	15,	-1,	-1,	41,	8,	-1,	-1|
-1,	42,	-1,	-1,	-1,	9,	-1,	25,	-1,	44,	3,	6,	35,	-1,	-1,	-1,	-1,	13,	-1,	-1,	-1,	39,	-1,	-1,	46,	2,	-1,	4,	31,	17,	21,	-1,	-1,	15,	1,	-1,	33,	-1,	38,	-1,	34,	48,	-1,	7,	43,	-1,	49,	-1,	-1|
10,	-1,	14,	47,	-1,	20,	-1,	-1,	-1,	39,	-1,	-1,	4,	-1,	26,	-1,	-1,	37,	8,	-1,	-1,	-1,	44,	1,	-1,	48,	-1,	22,	13,	9,	23,	-1,	-1,	32,	6,	43,	45,	42,	2,	35,	16,	-1,	34,	12,	11,	-1,	46,	-1,	-1|
-1,	-1,	6,	31,	-1,	25,	21,	-1,	26,	-1,	-1,	1,	-1,	-1,	-1,	18,	16,	4,	10,	39,	-1,	-1,	27,	30,	19,	5,	-1,	-1,	-1,	-1,	-1,	-1,	-1,	3,	-1,	-1,	-1,	29,	23,	-1,	-1,	12,	14,	22,	38,	-1,	-1,	48,	-1|
23,	1,	49,	-1,	18,	-1,	-1,	-1,	48,	27,	-1,	11,	-1,	-1,	-1,	33,	25,	42,	35,	-1,	-1,	13,	-1,	-1,	16,	-1,	-1,	38,	-1,	10,	-1,	40,	-1,	-1,	47,	-1,	39,	-1,	-1,	-1,	-1,	32,	6,	36,	30,	31,	2,	-1,	9|
11,	26,	7,	39,	22,	-1,	43,	-1,	31,	-1,	-1,	-1,	10,	13,	21,	-1,	36,	-1,	-1,	24,	30,	-1,	47,	-1,	20,	-1,	-1,	9,	18,	35,	28,	-1,	48,	12,	-1,	-1,	14,	44,	1,	-1,	-1,	-1,	-1,	19,	-1,	-1,	-1,	-1,	-1|
48,	14,	5,	-1,	15,	-1,	1,	7,	45,	42,	11,	-1,	29,	19,	-1,	-1,	33,	40,	-1,	-1,	-1,	-1,	22,	-1,	-1,	4,	27,	39,	-1,	-1,	-1,	-1,	-1,	21,	-1,	30,	-1,	20,	-1,	-1,	-1,	38,	-1,	9,	-1,	-1,	-1,	18,	2|
39,	4,	18,	-1,	-1,	-1,	-1,	-1,	-1,	-1,	-1,	-1,	5,	-1,	8,	-1,	-1,	-1,	48,	-1,	-1,	25,	-1,	-1,	2,	-1,	19,	33,	7,	27,	-1,	1,	-1,	43,	-1,	13,	46,	21,	-1,	-1,	-1,	22,	16,	-1,	-1,	-1,	20,	-1,	-1|
36,	38,	16,	-1,	-1,	-1,	-1,	43,	-1,	17,	-1,	-1,	-1,	39,	13,	41,	2,	-1,	-1,	-1,	31,	48,	21,	-1,	9,	7,	-1,	12,	6,	34,	-1,	-1,	4,	18,	32,	-1,	-1,	-1,	42,	-1,	35,	-1,	-1,	24,	23,	5,	45,	-1,	11|
13,	-1,	-1,	-1,	-1,	12,	-1,	48,	28,	-1,	-1,	10,	49,	-1,	36,	-1,	5,	-1,	30,	-1,	-1,	-1,	1,	-1,	-1,	-1,	-1,	14,	-1,	15,	38,	47,	37,	31,	-1,	32,	-1,	-1,	-1,	40,	-1,	-1,	3,	-1,	-1,	-1,	41,	-1,	-1|
-1,	7,	21,	-1,	-1,	-1,	35,	-1,	-1,	-1,	20,	-1,	-1,	8,	-1,	-1,	44,	-1,	-1,	-1,	-1,	-1,	-1,	31,	-1,	-1,	3,	45,	-1,	33,	-1,	-1,	17,	30,	-1,	6,	-1,	39,	-1,	-1,	48,	5,	1,	-1,	-1,	-1,	-1,	-1,	19|
-1,	-1,	-1,	-1,	-1,	-1,	42,	15,	40,	37,	1,	-1,	13,	-1,	25,	-1,	-1,	21,	49,	22,	4,	-1,	18,	20,	36,	41,	-1,	-1,	-1,	23,	12,	45,	-1,	46,	24,	-1,	-1,	8,	16,	7,	-1,	33,	39,	6,	29,	14,	-1,	43,	38|
45,	-1,	-1,	41,	6,	-1,	-1,	33,	16,	-1,	-1,	18,	31,	-1,	9,	28,	19,	3,	-1,	1,	14,	-1,	-1,	-1,	42,	-1,	34,	32,	-1,	39,	-1,	-1,	-1,	-1,	-1,	11,	-1,	-1,	-1,	27,	36,	43,	40,	-1,	-1,	22,	12,	-1,	-1|
-1,	-1,	-1,	22,	47,	15,	24,	-1,	13,	26,	29,	49,	-1,	-1,	-1,	-1,	-1,	19,	-1,	-1,	10,	-1,	-1,	5,	31,	-1,	17,	25,	32,	-1,	46,	-1,	23,	45,	-1,	4,	-1,	9,	43,	-1,	-1,	-1,	-1,	14,	34,	-1,	-1,	37,	-1|
25,	3,	29,	21,	42,	-1,	27,	-1,	4,	-1,	-1,	-1,	-1,	-1,	15,	-1,	-1,	-1,	-1,	31,	34,	-1,	-1,	44,	7,	37,	-1,	16,	-1,	-1,	1,	-1,	11,	-1,	-1,	38,	2,	46,	-1,	-1,	-1,	-1,	24,	41,	12,	-1,	-1,	19,	-1|
37,	30,	13,	-1,	14,	-1,	-1,	-1,	-1,	-1,	-1,	40,	18,	-1,	11,	43,	-1,	-1,	-1,	46,	-1,	-1,	39,	-1,	21,	-1,	33,	3,	29,	-1,	-1,	26,	10,	-1,	-1,	-1,	35,	-1,	36,	42,	-1,	-1,	5,	-1,	-1,	6,	-1,	8,	-1|
1,	2,	-1,	35,	41,	19,	-1,	-1,	42,	-1,	5,	-1,	-1,	32,	-1,	-1,	-1,	12,	-1,	23,	-1,	-1,	29,	-1,	34,	49,	45,	30,	-1,	16,	40,	21,	22,	36,	-1,	-1,	-1,	26,	-1,	24,	-1,	-1,	-1,	31,	18,	13,	11,	33,	48|
-1,	49,	11,	-1,	45,	32,	36,	20,	-1,	-1,	-1,	3,	-1,	-1,	30,	7,	-1,	6,	-1,	14,	-1,	19,	28,	-1,	13,	35,	-1,	-1,	-1,	-1,	-1,	31,	42,	41,	-1,	-1,	48,	5,	29,	-1,	8,	-1,	22,	10,	2,	15,	40,	4,	-1|
6,	34,	-1,	-1,	4,	-1,	23,	-1,	17,	30,	-1,	47,	43,	-1,	-1,	44,	-1,	-1,	-1,	-1,	-1,	-1,	-1,	-1,	27,	-1,	14,	18,	49,	28,	24,	-1,	-1,	-1,	-1,	-1,	20,	31,	11,	-1,	-1,	19,	-1,	25,	46,	-1,	-1,	32,	-1|
5,	46,	12,	48,	-1,	-1,	18,	11,	-1,	28,	14,	-1,	-1,	-1,	16,	-1,	29,	-1,	36,	-1,	24,	-1,	10,	32,	-1,	40,	15,	2,	-1,	47,	19,	-1,	25,	34,	35,	41,	13,	37,	45,	-1,	27,	23,	44,	43,	-1,	-1,	30,	1,	-1|];
