sudoku-ls/benchmarks_LEQ/INST_49x49/50/inst49x49_50_98.txt
7
1
41	11	-1	-1	-1	29	-1	35	-1	49	-1	43	32	-1	-1	34	8	24	-1	17	21	15	-1	27	14	44	6	-1	-1	-1	39	-1	-1	-1	-1	-1	-1	-1	-1	30	-1	-1	-1	40	28	26	37	-1	-1
17	-1	23	15	-1	-1	26	37	29	24	-1	41	38	3	39	-1	48	16	12	-1	-1	5	30	33	47	19	-1	40	-1	21	-1	-1	-1	-1	45	1	22	6	-1	11	-1	42	31	-1	8	-1	44	7	-1
-1	48	37	38	-1	-1	-1	10	-1	36	15	-1	-1	-1	28	4	13	1	-1	-1	-1	26	9	35	-1	25	22	-1	-1	-1	33	14	-1	24	-1	40	-1	16	-1	19	-1	3	49	-1	-1	-1	21	6	-1
-1	45	39	6	3	30	14	16	-1	1	34	-1	-1	22	-1	46	-1	-1	-1	-1	26	-1	7	28	49	18	2	13	47	48	-1	19	40	-1	25	23	-1	36	24	4	32	-1	-1	38	9	43	17	-1	12
-1	-1	27	7	21	-1	-1	-1	23	4	9	39	14	-1	40	35	-1	-1	47	5	22	45	-1	-1	-1	17	42	34	1	-1	6	41	-1	49	12	46	-1	48	-1	-1	43	26	-1	18	3	-1	15	20	-1
24	-1	28	42	-1	-1	19	-1	-1	-1	6	17	-1	-1	-1	-1	-1	-1	-1	-1	27	31	-1	-1	3	1	-1	43	35	-1	10	-1	-1	20	26	-1	29	13	21	-1	12	-1	41	-1	-1	-1	48	-1	32
4	20	10	40	43	-1	22	26	-1	48	-1	-1	-1	-1	49	6	-1	31	-1	-1	41	24	-1	-1	-1	-1	-1	11	44	7	-1	30	13	-1	17	-1	8	-1	15	-1	-1	2	36	-1	-1	-1	-1	-1	-1
9	35	33	-1	12	-1	8	3	-1	-1	-1	-1	-1	-1	29	-1	37	25	16	-1	6	23	32	-1	-1	20	-1	-1	40	-1	-1	13	-1	-1	10	-1	49	-1	7	-1	-1	-1	28	-1	-1	-1	-1	15	-1
-1	-1	42	32	17	-1	40	-1	49	-1	31	48	9	-1	-1	11	1	39	21	-1	43	-1	25	4	37	-1	-1	36	24	-1	-1	20	-1	-1	-1	27	-1	33	8	34	-1	16	35	-1	-1	-1	-1	41	-1
3	39	26	1	-1	-1	20	-1	37	-1	33	-1	8	-1	-1	23	7	-1	-1	-1	15	-1	-1	12	40	47	11	-1	-1	6	34	44	-1	42	21	45	31	25	-1	-1	46	17	-1	-1	49	-1	-1	10	-1
-1	37	-1	5	-1	-1	-1	-1	-1	-1	36	-1	20	-1	-1	-1	14	35	22	48	49	-1	-1	18	-1	-1	-1	46	-1	4	-1	-1	-1	-1	-1	-1	21	1	9	23	47	24	42	3	25	-1	26	-1	-1
19	-1	-1	-1	-1	-1	-1	47	34	46	32	24	-1	10	-1	-1	31	-1	45	4	-1	9	-1	-1	-1	-1	-1	-1	12	-1	-1	23	-1	1	5	-1	43	15	-1	29	42	13	20	21	40	39	33	-1	-1
14	36	-1	-1	25	-1	45	-1	44	15	-1	-1	1	-1	-1	-1	-1	47	-1	-1	-1	-1	42	-1	-1	-1	-1	29	-1	-1	3	-1	26	-1	31	-1	-1	22	37	32	39	-1	-1	-1	-1	30	-1	-1	-1
47	-1	-1	-1	31	41	15	6	-1	35	-1	2	27	-1	-1	13	-1	-1	-1	-1	44	-1	-1	-1	-1	8	26	-1	-1	37	-1	-1	39	-1	-1	-1	40	3	-1	48	18	11	-1	4	-1	12	-1	38	-1
15	22	-1	26	-1	14	-1	-1	-1	34	43	-1	-1	6	12	-1	42	36	-1	30	-1	40	33	-1	-1	10	-1	-1	8	-1	25	39	24	38	4	48	23	-1	-1	-1	-1	-1	-1	5	-1	1	27	49	47
20	21	-1	30	-1	47	13	8	-1	-1	-1	-1	-1	38	7	-1	4	17	44	-1	-1	27	-1	39	-1	-1	43	-1	2	-1	-1	33	18	5	34	-1	10	49	40	-1	-1	-1	46	-1	32	-1	24	-1	23
16	8	-1	33	29	1	-1	-1	-1	-1	21	42	-1	26	-1	14	49	-1	-1	-1	-1	-1	-1	36	-1	24	-1	-1	15	40	-1	-1	-1	23	-1	7	-1	32	-1	44	4	-1	30	-1	35	38	28	-1	22
35	-1	-1	10	44	4	48	5	-1	-1	30	45	-1	49	27	-1	15	22	40	47	-1	32	-1	-1	-1	-1	1	-1	21	41	-1	42	19	11	28	33	-1	-1	31	39	38	36	7	34	20	37	18	-1	-1
-1	40	2	-1	19	24	11	18	-1	33	-1	-1	-1	4	-1	-1	46	-1	3	-1	-1	-1	-1	-1	45	-1	20	49	-1	36	31	-1	-1	7	-1	25	-1	27	-1	-1	-1	15	43	17	26	29	-1	12	44
-1	-1	-1	18	38	6	-1	-1	12	-1	44	-1	36	-1	10	39	-1	-1	-1	-1	28	16	-1	-1	-1	-1	-1	-1	-1	-1	22	17	-1	47	-1	-1	11	-1	46	8	-1	21	-1	-1	-1	-1	-1	-1	41
-1	32	-1	45	-1	-1	7	17	24	11	2	46	3	40	-1	-1	35	41	-1	26	-1	-1	13	38	22	15	-1	37	30	49	-1	-1	-1	9	-1	-1	1	43	47	6	-1	-1	-1	42	48	21	10	-1	14
-1	16	-1	-1	-1	3	-1	46	-1	41	-1	4	-1	15	-1	49	22	9	-1	-1	-1	-1	-1	-1	48	-1	12	-1	28	-1	42	2	-1	-1	36	18	-1	11	30	-1	25	-1	21	39	-1	-1	-1	-1	-1
33	-1	19	-1	-1	42	-1	21	-1	10	-1	-1	34	9	-1	-1	-1	46	-1	-1	16	-1	-1	-1	-1	-1	-1	-1	3	32	-1	18	-1	-1	43	-1	-1	-1	41	-1	-1	-1	-1	30	4	-1	-1	-1	15
21	44	32	37	-1	49	-1	-1	-1	20	-1	-1	17	-1	-1	-1	23	7	-1	36	-1	34	-1	22	1	-1	5	-1	-1	-1	9	8	-1	6	41	31	-1	-1	10	12	15	46	2	28	24	-1	-1	-1	18
46	-1	-1	-1	-1	-1	4	-1	1	3	19	12	22	16	47	32	21	-1	29	-1	42	36	-1	25	-1	27	30	-1	34	31	-1	-1	44	-1	39	-1	7	-1	33	-1	-1	45	-1	23	41	11	-1	-1	-1
-1	-1	-1	36	-1	-1	39	31	-1	-1	18	-1	-1	-1	-1	3	11	-1	-1	-1	40	14	17	41	-1	-1	37	10	-1	19	-1	-1	-1	13	-1	-1	-1	47	6	5	-1	-1	-1	20	-1	33	-1	-1	-1
-1	17	-1	9	-1	-1	-1	2	27	38	-1	8	11	23	-1	30	-1	-1	-1	-1	-1	3	43	45	33	32	-1	-1	-1	20	-1	-1	21	14	-1	19	26	35	-1	22	13	-1	25	46	10	40	-1	29	-1
-1	10	-1	-1	7	27	-1	-1	6	45	35	-1	42	-1	-1	-1	39	-1	43	13	48	20	40	8	28	21	9	44	17	25	30	-1	46	-1	-1	16	-1	23	34	-1	-1	1	-1	26	19	-1	-1	-1	-1
-1	41	-1	46	-1	-1	34	14	38	-1	-1	16	28	-1	-1	48	-1	-1	-1	-1	-1	-1	31	40	32	-1	-1	23	-1	11	5	4	-1	-1	-1	-1	27	7	-1	-1	37	-1	-1	-1	-1	-1	39	-1	-1
27	-1	48	-1	32	-1	29	42	33	-1	-1	-1	-1	18	1	-1	20	-1	-1	44	11	-1	6	-1	24	3	-1	-1	-1	43	49	46	-1	-1	22	-1	-1	4	13	-1	-1	25	-1	-1	-1	-1	8	21	45
-1	-1	45	8	-1	-1	-1	25	-1	44	3	-1	35	5	-1	-1	28	13	-1	19	-1	-1	11	26	46	2	-1	4	31	17	-1	24	36	-1	-1	-1	33	41	-1	10	-1	48	-1	7	-1	-1	-1	-1	40
10	5	-1	-1	-1	20	-1	-1	41	-1	49	-1	-1	30	26	-1	27	-1	-1	40	-1	-1	44	1	25	48	18	22	13	-1	-1	29	-1	-1	6	43	45	-1	-1	35	-1	-1	-1	12	-1	-1	-1	24	-1
-1	15	6	31	-1	-1	21	9	26	43	-1	1	45	-1	-1	18	16	4	-1	-1	46	-1	27	-1	19	-1	-1	-1	33	-1	2	34	-1	-1	-1	24	-1	-1	-1	-1	11	-1	14	-1	38	-1	-1	-1	20
-1	-1	-1	-1	-1	17	28	-1	-1	-1	-1	-1	15	46	-1	33	25	-1	-1	12	29	-1	-1	34	16	-1	7	-1	45	10	-1	-1	-1	-1	47	3	-1	-1	-1	-1	-1	32	6	-1	30	31	2	-1	9
11	26	7	-1	22	38	-1	34	-1	2	37	29	-1	13	-1	-1	-1	-1	-1	-1	-1	42	47	15	-1	-1	-1	9	-1	35	-1	27	48	12	-1	-1	14	44	1	-1	-1	40	32	19	-1	-1	4	-1	3
-1	14	-1	25	15	-1	1	-1	45	42	-1	-1	-1	-1	-1	24	33	-1	46	-1	-1	-1	22	23	35	-1	27	39	-1	-1	16	-1	-1	-1	-1	30	47	-1	12	41	-1	-1	17	-1	-1	8	-1	-1	-1
-1	4	-1	-1	-1	-1	32	-1	3	9	41	-1	-1	12	-1	-1	-1	11	48	-1	38	25	24	17	2	6	19	-1	7	-1	-1	1	29	43	-1	-1	46	21	26	-1	-1	-1	16	-1	-1	-1	20	-1	49
36	-1	-1	-1	-1	-1	-1	-1	14	17	-1	-1	26	39	13	41	2	27	-1	-1	31	48	21	-1	9	7	-1	12	-1	-1	-1	22	-1	18	-1	37	-1	28	42	1	35	-1	-1	-1	23	-1	-1	-1	-1
-1	-1	-1	-1	2	12	17	-1	28	6	4	10	49	27	-1	42	-1	-1	-1	-1	39	-1	1	43	-1	-1	-1	14	-1	15	38	-1	37	31	11	32	-1	-1	25	-1	45	-1	-1	35	-1	7	41	-1	33
28	-1	21	-1	-1	40	-1	22	-1	-1	20	-1	24	-1	-1	12	-1	10	-1	-1	47	46	-1	-1	-1	38	3	-1	-1	33	41	49	-1	30	-1	-1	-1	-1	-1	-1	48	-1	1	-1	-1	36	-1	-1	19
-1	31	-1	-1	27	11	42	-1	-1	37	1	-1	-1	35	25	17	-1	21	-1	22	4	28	18	-1	36	-1	-1	-1	48	23	-1	-1	-1	-1	-1	-1	-1	8	16	7	-1	33	-1	-1	29	14	-1	-1	-1
45	24	8	41	-1	-1	-1	-1	-1	47	-1	-1	-1	-1	-1	28	-1	-1	-1	1	14	-1	-1	-1	-1	-1	-1	-1	5	39	-1	-1	35	25	-1	-1	-1	2	49	-1	-1	43	-1	48	37	22	12	26	4
-1	-1	-1	22	-1	-1	-1	39	13	-1	29	-1	2	-1	48	27	41	19	-1	-1	10	1	-1	5	31	-1	17	25	32	18	-1	-1	23	45	30	-1	16	9	43	-1	-1	-1	38	-1	-1	-1	-1	37	35
-1	-1	-1	21	42	26	-1	-1	4	8	-1	35	6	-1	-1	-1	40	33	-1	-1	-1	-1	-1	-1	7	37	-1	-1	-1	5	1	9	11	17	14	38	2	-1	-1	-1	-1	30	-1	41	12	28	23	19	36
37	30	13	20	14	-1	31	41	15	19	24	-1	-1	34	11	-1	-1	32	4	-1	25	22	-1	9	-1	23	-1	3	29	-1	-1	26	-1	-1	2	-1	-1	-1	-1	-1	-1	-1	5	-1	-1	-1	-1	-1	27
1	2	43	-1	-1	-1	-1	38	42	7	-1	-1	46	-1	-1	-1	-1	-1	-1	23	3	4	-1	-1	34	49	-1	-1	20	16	-1	21	22	-1	-1	14	-1	-1	39	24	44	10	-1	-1	18	-1	11	33	48
-1	49	11	-1	-1	32	36	20	9	-1	23	-1	-1	-1	30	7	47	-1	-1	-1	-1	19	28	-1	13	-1	24	26	27	-1	43	31	42	41	-1	21	48	-1	29	-1	-1	34	-1	-1	2	15	40	-1	39
-1	34	40	-1	4	-1	-1	1	17	-1	12	-1	43	37	2	-1	-1	-1	39	38	35	41	48	42	-1	-1	-1	-1	-1	28	24	-1	33	8	13	22	20	-1	11	-1	-1	-1	-1	-1	-1	45	29	32	-1
5	-1	12	48	-1	7	-1	11	-1	-1	-1	22	-1	31	-1	-1	29	26	36	49	24	38	-1	-1	8	40	-1	2	4	-1	19	6	25	34	-1	41	13	-1	-1	-1	27	23	44	-1	-1	-1	30	1	42
49 
19 21 22 33
13 22 3 1
47 12 41 4
24 15 6 46
40 42 34 41
36 15 23 17
33 14 26 31
46 16 38 31
7 40 25 43
4 17 36 41
13 29 8 4
31 1 30 10
2 2 33 5
8 24 9 14
16 12 30 43
35 35 30 6
47 4 15 38
7 9 29 42
48 42 38 4
2 21 29 14
4 13 19 24
26 29 47 43
33 39 30 12
25 41 23 28
18 9 33 6
18 26 9 41
8 45 22 42
12 36 2 32
11 34 29 43
10 18 14 25
16 28 8 27
5 1 40 12
22 15 43 2
14 3 42 27
4 48 47 26
8 36 35 17
31 7 7 34
11 3 32 33
40 38 33 20
36 18 38 27
46 5 35 27
19 1 16 26
24 9 29 17
4 37 15 27
11 14 3 21
26 26 14 15
17 22 22 9
26 32 44 14
43 12 35 18
